;symbolic execution tree
(push)
(assert (le x10 net.n3.nanoxml.XMLElement))
(check-sat)
(push)
(assert (le x1 java.io.LineNumberReader))
(check-sat)
(pop)
(push)
(assert (not (le x1 java.io.LineNumberReader)))
(check-sat)
(pop)
(push)
(assert (le x4 java.lang.String))
(check-sat)
(pop)
(push)
(assert (not (le x4 java.lang.String)))
(check-sat)
(push)
(assert (le x10 net.n3.nanoxml.XMLElement))
(check-sat)
(push)
(assert (le x1 net.n3.nanoxml.XMLElement))
(check-sat)
(pop)
(push)
(assert (not (le x1 net.n3.nanoxml.XMLElement)))
(check-sat)
(pop)
(pop)
(push)
(assert (not (le x10 net.n3.nanoxml.XMLElement)))
(check-sat)
(pop)
(pop)
(push)
(assert (le x11 net.n3.nanoxml.XMLElement))
(check-sat)
(push)
(assert (le x10 net.n3.nanoxml.XMLElement))
(check-sat)
(pop)
(push)
(assert (not (le x10 net.n3.nanoxml.XMLElement)))
(check-sat)
(pop)
(push)
(assert (le x1 net.n3.nanoxml.XMLElement))
(check-sat)
(pop)
(push)
(assert (not (le x1 net.n3.nanoxml.XMLElement)))
(check-sat)
(push)
(assert (le x6 java.lang.String))
(check-sat)
(pop)
(push)
(assert (not (le x6 java.lang.String)))
(check-sat)
(pop)
(pop)
(push)
(assert (le x13 java.util.Vector))
(check-sat)
(push)
(assert (le x10 net.n3.nanoxml.XMLElement))
(check-sat)
(pop)
(push)
(assert (not (le x10 net.n3.nanoxml.XMLElement)))
(check-sat)
(pop)
(pop)
(push)
(assert (not (le x13 java.util.Vector)))
(check-sat)
(pop)
(push)
(assert (le x0 java.lang.String))
(check-sat)
(push)
(assert (le x11 net.n3.nanoxml.XMLElement))
(check-sat)
(pop)
(push)
(assert (not (le x11 net.n3.nanoxml.XMLElement)))
(check-sat)
(pop)
(push)
(assert (le x6 java.lang.StringBuilder))
(check-sat)
(pop)
(push)
(assert (not (le x6 java.lang.StringBuilder)))
(check-sat)
(pop)
(push)
(assert (le x1 java.util.Properties))
(check-sat)
(pop)
(push)
(assert (not (le x1 java.util.Properties)))
(check-sat)
(pop)
(pop)
(push)
(assert (not (le x0 java.lang.String)))
(check-sat)
(push)
(assert (le x10 net.n3.nanoxml.XMLElement))
(check-sat)
(pop)
(push)
(assert (not (le x10 net.n3.nanoxml.XMLElement)))
(check-sat)
(pop)
(pop)
(push)
(assert (le x5 java.lang.String))
(check-sat)
(pop)
(push)
(assert (not (le x5 java.lang.String)))
(check-sat)
(pop)
(pop)
(push)
(assert (not (le x11 net.n3.nanoxml.XMLElement)))
(check-sat)
(pop)
(push)
(assert (le x4 java.util.Vector))
(check-sat)
(push)
(assert (le x7 java.lang.StringBuffer))
(check-sat)
(push)
(assert (le x4 java.util.Vector))
(check-sat)
(pop)
(push)
(assert (not (le x4 java.util.Vector)))
(check-sat)
(pop)
(pop)
(push)
(assert (not (le x7 java.lang.StringBuffer)))
(check-sat)
(pop)
(pop)
(push)
(assert (not (le x4 java.util.Vector)))
(check-sat)
(push)
(assert (le x2 java.lang.String))
(check-sat)
(pop)
(push)
(assert (not (le x2 java.lang.String)))
(check-sat)
(push)
(assert (le x7 java.lang.StringBuffer))
(check-sat)
(pop)
(push)
(assert (not (le x7 java.lang.StringBuffer)))
(check-sat)
(pop)
(pop)
(push)
(assert (le x14 java.lang.String))
(check-sat)
(pop)
(push)
(assert (not (le x14 java.lang.String)))
(check-sat)
(push)
(assert (le x5 java.util.Properties))
(check-sat)
(pop)
(push)
(assert (not (le x5 java.util.Properties)))
(check-sat)
(pop)
(pop)
(pop)
(push)
(assert (le x13 java.lang.String))
(check-sat)
(pop)
(push)
(assert (not (le x13 java.lang.String)))
(check-sat)
(push)
(assert (le x0 java.util.Vector))
(check-sat)
(pop)
(push)
(assert (not (le x0 java.util.Vector)))
(check-sat)
(push)
(assert (le x2 net.n3.nanoxml.XMLElement))
(check-sat)
(pop)
(push)
(assert (not (le x2 net.n3.nanoxml.XMLElement)))
(check-sat)
(pop)
(pop)
(push)
(assert (le x12 java.io.PrintStream))
(check-sat)
(push)
(assert (le x2 java.lang.String))
(check-sat)
(pop)
(push)
(assert (not (le x2 java.lang.String)))
(check-sat)
(pop)
(push)
(assert (le x12 java.io.PrintStream))
(check-sat)
(pop)
(push)
(assert (not (le x12 java.io.PrintStream)))
(check-sat)
(pop)
(pop)
(push)
(assert (not (le x12 java.io.PrintStream)))
(check-sat)
(push)
(assert (le x15 java.lang.StringBuffer))
(check-sat)
(pop)
(push)
(assert (not (le x15 java.lang.StringBuffer)))
(check-sat)
(pop)
(pop)
(pop)
(push)
(assert (le x5 java.lang.StringBuffer))
(check-sat)
(push)
(assert (le x13 java.lang.String))
(check-sat)
(push)
(assert (le x5 java.lang.StringBuffer))
(check-sat)
(push)
(assert (le x7 java.lang.String))
(check-sat)
(pop)
(push)
(assert (not (le x7 java.lang.String)))
(check-sat)
(pop)
(pop)
(push)
(assert (not (le x5 java.lang.StringBuffer)))
(check-sat)
(pop)
(pop)
(push)
(assert (not (le x13 java.lang.String)))
(check-sat)
(pop)
(pop)
(push)
(assert (not (le x5 java.lang.StringBuffer)))
(check-sat)
(pop)
(push)
(assert (le x1 java.lang.StringBuilder))
(check-sat)
(pop)
(push)
(assert (not (le x1 java.lang.StringBuilder)))
(check-sat)
(push)
(assert (le x7 java.lang.String))
(check-sat)
(push)
(assert (le x7 java.lang.String))
(check-sat)
(push)
(assert (le x8 java.lang.String))
(check-sat)
(pop)
(push)
(assert (not (le x8 java.lang.String)))
(check-sat)
(pop)
(pop)
(push)
(assert (not (le x7 java.lang.String)))
(check-sat)
(pop)
(push)
(assert (le x15 java.io.PrintStream))
(check-sat)
(push)
(assert (le x13 java.lang.StringBuilder))
(check-sat)
(pop)
(push)
(assert (not (le x13 java.lang.StringBuilder)))
(check-sat)
(pop)
(pop)
(push)
(assert (not (le x15 java.io.PrintStream)))
(check-sat)
(pop)
(push)
(assert (le x8 java.lang.StringBuffer))
(check-sat)
(pop)
(push)
(assert (not (le x8 java.lang.StringBuffer)))
(check-sat)
(push)
(assert (le x4 java.lang.String))
(check-sat)
(pop)
(push)
(assert (not (le x4 java.lang.String)))
(check-sat)
(pop)
(pop)
(push)
(assert (le x8 java.lang.StringBuilder))
(check-sat)
(pop)
(push)
(assert (not (le x8 java.lang.StringBuilder)))
(check-sat)
(pop)
(pop)
(push)
(assert (not (le x7 java.lang.String)))
(check-sat)
(pop)
(push)
(assert (le x9 net.n3.nanoxml.XMLElement))
(check-sat)
(push)
(assert (le x10 net.n3.nanoxml.XMLElement))
(check-sat)
(pop)
(push)
(assert (not (le x10 net.n3.nanoxml.XMLElement)))
(check-sat)
(pop)
(pop)
(push)
(assert (not (le x9 net.n3.nanoxml.XMLElement)))
(check-sat)
(push)
(assert (le x5 net.n3.nanoxml.XMLElement))
(check-sat)
(pop)
(push)
(assert (not (le x5 net.n3.nanoxml.XMLElement)))
(check-sat)
(push)
(assert (le x1 java.lang.StringBuilder))
(check-sat)
(pop)
(push)
(assert (not (le x1 java.lang.StringBuilder)))
(check-sat)
(pop)
(pop)
(pop)
(push)
(assert (le x10 net.n3.nanoxml.XMLElement))
(check-sat)
(pop)
(push)
(assert (not (le x10 net.n3.nanoxml.XMLElement)))
(check-sat)
(pop)
(push)
(assert (le x12 java.lang.String))
(check-sat)
(pop)
(push)
(assert (not (le x12 java.lang.String)))
(check-sat)
(pop)
(push)
(assert (le x15 java.lang.String))
(check-sat)
(pop)
(push)
(assert (not (le x15 java.lang.String)))
(check-sat)
(push)
(assert (le x11 java.util.Properties))
(check-sat)
(pop)
(push)
(assert (not (le x11 java.util.Properties)))
(check-sat)
(pop)
(pop)
(push)
(assert (le x7 java.lang.String))
(check-sat)
(push)
(assert (le x1 java.lang.StringBuilder))
(check-sat)
(pop)
(push)
(assert (not (le x1 java.lang.StringBuilder)))
(check-sat)
(push)
(assert (le x2 java.lang.String))
(check-sat)
(pop)
(push)
(assert (not (le x2 java.lang.String)))
(check-sat)
(pop)
(pop)
(pop)
(push)
(assert (not (le x7 java.lang.String)))
(check-sat)
(pop)
(push)
(assert (le x11 java.lang.String))
(check-sat)
(push)
(assert (le x15 java.lang.StringBuffer))
(check-sat)
(pop)
(push)
(assert (not (le x15 java.lang.StringBuffer)))
(check-sat)
(push)
(assert (le x11 java.lang.StringBuffer))
(check-sat)
(pop)
(push)
(assert (not (le x11 java.lang.StringBuffer)))
(check-sat)
(pop)
(push)
(assert (le x6 java.lang.String))
(check-sat)
(pop)
(push)
(assert (not (le x6 java.lang.String)))
(check-sat)
(pop)
(pop)
(push)
(assert (le x9 net.sourceforge.jxml2sql.database.DatabaseField))
(check-sat)
(pop)
(push)
(assert (not (le x9 net.sourceforge.jxml2sql.database.DatabaseField)))
(check-sat)
(pop)
(push)
(assert (le x12 java.lang.String))
(check-sat)
(pop)
(push)
(assert (not (le x12 java.lang.String)))
(check-sat)
(push)
(assert (le x2 java.lang.String))
(check-sat)
(pop)
(push)
(assert (not (le x2 java.lang.String)))
(check-sat)
(pop)
(pop)
(pop)
(push)
(assert (not (le x11 java.lang.String)))
(check-sat)
(pop)
(push)
(assert (le x5 java.util.Properties))
(check-sat)
(pop)
(push)
(assert (not (le x5 java.util.Properties)))
(check-sat)
(pop)
(push)
(assert (le x4 java.lang.String))
(check-sat)
(pop)
(push)
(assert (not (le x4 java.lang.String)))
(check-sat)
(pop)
(pop)
(push)
(assert (le x8 java.util.Vector))
(check-sat)
(push)
(assert (le x1 java.lang.StringBuilder))
(check-sat)
(pop)
(push)
(assert (not (le x1 java.lang.StringBuilder)))
(check-sat)
(push)
(assert (le x13 java.lang.StringBuffer))
(check-sat)
(pop)
(push)
(assert (not (le x13 java.lang.StringBuffer)))
(check-sat)
(pop)
(pop)
(push)
(assert (le x4 java.lang.Class))
(check-sat)
(push)
(assert (le x7 java.lang.String))
(check-sat)
(push)
(assert (le x9 net.n3.nanoxml.XMLElement))
(check-sat)
(pop)
(push)
(assert (not (le x9 net.n3.nanoxml.XMLElement)))
(check-sat)
(pop)
(pop)
(push)
(assert (not (le x7 java.lang.String)))
(check-sat)
(pop)
(push)
(assert (le x5 java.lang.StringBuffer))
(check-sat)
(push)
(assert (le x3 java.io.PrintStream))
(check-sat)
(pop)
(push)
(assert (not (le x3 java.io.PrintStream)))
(check-sat)
(pop)
(push)
(assert (le x2 net.n3.nanoxml.XMLElement))
(check-sat)
(pop)
(push)
(assert (not (le x2 net.n3.nanoxml.XMLElement)))
(check-sat)
(pop)
(pop)
(push)
(assert (not (le x5 java.lang.StringBuffer)))
(check-sat)
(push)
(assert (le x1 java.lang.String))
(check-sat)
(pop)
(push)
(assert (not (le x1 java.lang.String)))
(check-sat)
(pop)
(push)
(assert (le x6 java.lang.StringBuffer))
(check-sat)
(pop)
(push)
(assert (not (le x6 java.lang.StringBuffer)))
(check-sat)
(pop)
(push)
(assert (le x2 java.lang.String))
(check-sat)
(pop)
(push)
(assert (not (le x2 java.lang.String)))
(check-sat)
(pop)
(push)
(assert (le x12 java.lang.StringBuffer))
(check-sat)
(pop)
(push)
(assert (not (le x12 java.lang.StringBuffer)))
(check-sat)
(pop)
(pop)
(push)
(assert (le x0 java.lang.String))
(check-sat)
(pop)
(push)
(assert (not (le x0 java.lang.String)))
(check-sat)
(pop)
(push)
(assert (le x10 net.n3.nanoxml.XMLElement))
(check-sat)
(pop)
(push)
(assert (not (le x10 net.n3.nanoxml.XMLElement)))
(check-sat)
(pop)
(pop)
(push)
(assert (not (le x4 java.lang.Class)))
(check-sat)
(pop)
(pop)
(push)
(assert (not (le x8 java.util.Vector)))
(check-sat)
(pop)
(push)
(assert (le x1 java.lang.String))
(check-sat)
(pop)
(push)
(assert (not (le x1 java.lang.String)))
(check-sat)
(pop)
(pop)
(push)
(assert (not (le x10 net.n3.nanoxml.XMLElement)))
(check-sat)
(pop)
